tsp_instances/TSP20/instance3.tsp
NODE_COORD_SECTION
0 100 52
1 186 10
2 156 122
3 90 90
4 28 81
5 141 71
6 69 38
7 101 166
8 44 49
9 65 187
10 30 154
11 120 1
12 153 106
13 170 163
14 76 62
15 30 132
16 170 140
17 28 126
18 52 179
19 168 76
