tsp_instances/TSP20/instance3.opt.tour
TOUR_SECTION
1
4
15
7
9
5
18
16
11
19
10
8
14
17
3
13
6
20
2
12
-1